(set-logic HORN)
(declare-datatypes ((Nat_542 0)) (((Z_1938 ) (S_431 (unS_640 Nat_542)))))
(declare-fun diseqNat_542 (Nat_542 Nat_542) Bool)
(declare-fun unS_641 (Nat_542 Nat_542) Bool)
(declare-fun isZ_398 (Nat_542) Bool)
(declare-fun isS_398 (Nat_542) Bool)
(assert (forall ((x_54254 Nat_542))
	(unS_641 x_54254 (S_431 x_54254))))
(assert (isZ_398 Z_1938))
(assert (forall ((x_54256 Nat_542))
	(isS_398 (S_431 x_54256))))
(assert (forall ((x_54257 Nat_542))
	(diseqNat_542 Z_1938 (S_431 x_54257))))
(assert (forall ((x_54258 Nat_542))
	(diseqNat_542 (S_431 x_54258) Z_1938)))
(assert (forall ((x_54259 Nat_542) (x_54260 Nat_542))
	(=> (diseqNat_542 x_54259 x_54260)
	    (diseqNat_542 (S_431 x_54259) (S_431 x_54260)))))
(declare-fun add_346 (Nat_542 Nat_542 Nat_542) Bool)
(declare-fun minus_341 (Nat_542 Nat_542 Nat_542) Bool)
(declare-fun le_320 (Nat_542 Nat_542) Bool)
(declare-fun ge_320 (Nat_542 Nat_542) Bool)
(declare-fun lt_340 (Nat_542 Nat_542) Bool)
(declare-fun gt_323 (Nat_542 Nat_542) Bool)
(declare-fun mult_320 (Nat_542 Nat_542 Nat_542) Bool)
(declare-fun div_320 (Nat_542 Nat_542 Nat_542) Bool)
(declare-fun mod_322 (Nat_542 Nat_542 Nat_542) Bool)
(assert (forall ((y_2173 Nat_542))
	(add_346 y_2173 Z_1938 y_2173)))
(assert (forall ((x_54230 Nat_542) (y_2173 Nat_542) (r_393 Nat_542))
	(=> (add_346 r_393 x_54230 y_2173)
	    (add_346 (S_431 r_393) (S_431 x_54230) y_2173))))
(assert (forall ((y_2173 Nat_542))
	(minus_341 Z_1938 Z_1938 y_2173)))
(assert (forall ((x_54230 Nat_542) (y_2173 Nat_542) (r_393 Nat_542))
	(=> (minus_341 r_393 x_54230 y_2173)
	    (minus_341 (S_431 r_393) (S_431 x_54230) y_2173))))
(assert (forall ((y_2173 Nat_542))
	(le_320 Z_1938 y_2173)))
(assert (forall ((x_54230 Nat_542) (y_2173 Nat_542))
	(=> (le_320 x_54230 y_2173)
	    (le_320 (S_431 x_54230) (S_431 y_2173)))))
(assert (forall ((y_2173 Nat_542))
	(ge_320 y_2173 Z_1938)))
(assert (forall ((x_54230 Nat_542) (y_2173 Nat_542))
	(=> (ge_320 x_54230 y_2173)
	    (ge_320 (S_431 x_54230) (S_431 y_2173)))))
(assert (forall ((y_2173 Nat_542))
	(lt_340 Z_1938 (S_431 y_2173))))
(assert (forall ((x_54230 Nat_542) (y_2173 Nat_542))
	(=> (lt_340 x_54230 y_2173)
	    (lt_340 (S_431 x_54230) (S_431 y_2173)))))
(assert (forall ((y_2173 Nat_542))
	(gt_323 (S_431 y_2173) Z_1938)))
(assert (forall ((x_54230 Nat_542) (y_2173 Nat_542))
	(=> (gt_323 x_54230 y_2173)
	    (gt_323 (S_431 x_54230) (S_431 y_2173)))))
(assert (forall ((y_2173 Nat_542))
	(mult_320 Z_1938 Z_1938 y_2173)))
(assert (forall ((x_54230 Nat_542) (y_2173 Nat_542) (r_393 Nat_542) (z_1939 Nat_542))
	(=>	(and (mult_320 r_393 x_54230 y_2173)
			(add_346 z_1939 r_393 y_2173))
		(mult_320 z_1939 (S_431 x_54230) y_2173))))
(assert (forall ((x_54230 Nat_542) (y_2173 Nat_542))
	(=> (lt_340 x_54230 y_2173)
	    (div_320 Z_1938 x_54230 y_2173))))
(assert (forall ((x_54230 Nat_542) (y_2173 Nat_542) (r_393 Nat_542) (z_1939 Nat_542))
	(=>	(and (ge_320 x_54230 y_2173)
			(minus_341 z_1939 x_54230 y_2173)
			(div_320 r_393 z_1939 y_2173))
		(div_320 (S_431 r_393) x_54230 y_2173))))
(assert (forall ((x_54230 Nat_542) (y_2173 Nat_542))
	(=> (lt_340 x_54230 y_2173)
	    (mod_322 x_54230 x_54230 y_2173))))
(assert (forall ((x_54230 Nat_542) (y_2173 Nat_542) (r_393 Nat_542) (z_1939 Nat_542))
	(=>	(and (ge_320 x_54230 y_2173)
			(minus_341 z_1939 x_54230 y_2173)
			(mod_322 r_393 z_1939 y_2173))
		(mod_322 r_393 x_54230 y_2173))))
(declare-datatypes ((list_225 0)) (((nil_255 ) (cons_225 (head_450 Nat_542) (tail_450 list_225)))))
(declare-fun diseqlist_225 (list_225 list_225) Bool)
(declare-fun head_451 (Nat_542 list_225) Bool)
(declare-fun tail_451 (list_225 list_225) Bool)
(declare-fun isnil_255 (list_225) Bool)
(declare-fun iscons_225 (list_225) Bool)
(assert (forall ((x_54232 Nat_542) (x_54233 list_225))
	(head_451 x_54232 (cons_225 x_54232 x_54233))))
(assert (forall ((x_54232 Nat_542) (x_54233 list_225))
	(tail_451 x_54233 (cons_225 x_54232 x_54233))))
(assert (isnil_255 nil_255))
(assert (forall ((x_54235 Nat_542) (x_54236 list_225))
	(iscons_225 (cons_225 x_54235 x_54236))))
(assert (forall ((x_54237 Nat_542) (x_54238 list_225))
	(diseqlist_225 nil_255 (cons_225 x_54237 x_54238))))
(assert (forall ((x_54239 Nat_542) (x_54240 list_225))
	(diseqlist_225 (cons_225 x_54239 x_54240) nil_255)))
(assert (forall ((x_54241 Nat_542) (x_54242 list_225) (x_54243 Nat_542) (x_54244 list_225))
	(=> (diseqNat_542 x_54241 x_54243)
	    (diseqlist_225 (cons_225 x_54241 x_54242) (cons_225 x_54243 x_54244)))))
(assert (forall ((x_54241 Nat_542) (x_54242 list_225) (x_54243 Nat_542) (x_54244 list_225))
	(=> (diseqlist_225 x_54242 x_54244)
	    (diseqlist_225 (cons_225 x_54241 x_54242) (cons_225 x_54243 x_54244)))))
(declare-datatypes ((Nat_541 0)) (((Z_1936 ) (S_430 (projS_154 Nat_541)))))
(declare-fun diseqNat_541 (Nat_541 Nat_541) Bool)
(declare-fun projS_155 (Nat_541 Nat_541) Bool)
(declare-fun isZ_397 (Nat_541) Bool)
(declare-fun isS_397 (Nat_541) Bool)
(assert (forall ((x_54246 Nat_541))
	(projS_155 x_54246 (S_430 x_54246))))
(assert (isZ_397 Z_1936))
(assert (forall ((x_54248 Nat_541))
	(isS_397 (S_430 x_54248))))
(assert (forall ((x_54249 Nat_541))
	(diseqNat_541 Z_1936 (S_430 x_54249))))
(assert (forall ((x_54250 Nat_541))
	(diseqNat_541 (S_430 x_54250) Z_1936)))
(assert (forall ((x_54251 Nat_541) (x_54252 Nat_541))
	(=> (diseqNat_541 x_54251 x_54252)
	    (diseqNat_541 (S_430 x_54251) (S_430 x_54252)))))
(declare-fun length_42 (Nat_541 list_225) Bool)
(assert (forall ((x_54218 Nat_541) (y_2170 Nat_542) (xs_616 list_225))
	(=> (length_42 x_54218 xs_616)
	    (length_42 (S_430 x_54218) (cons_225 y_2170 xs_616)))))
(assert (length_42 Z_1936 nil_255))
(declare-fun x_54213 (list_225 list_225 list_225) Bool)
(assert (forall ((x_54221 list_225) (z_1937 Nat_542) (xs_617 list_225) (y_2171 list_225))
	(=> (x_54213 x_54221 xs_617 y_2171)
	    (x_54213 (cons_225 z_1937 x_54221) (cons_225 z_1937 xs_617) y_2171))))
(assert (forall ((x_54222 list_225))
	(x_54213 x_54222 nil_255 x_54222)))
(declare-fun rev_7 (list_225 list_225) Bool)
(assert (forall ((x_54223 list_225) (x_54224 list_225) (y_2172 Nat_542) (xs_618 list_225))
	(=>	(and (rev_7 x_54224 xs_618)
			(x_54213 x_54223 x_54224 (cons_225 y_2172 nil_255)))
		(rev_7 x_54223 (cons_225 y_2172 xs_618)))))
(assert (rev_7 nil_255 nil_255))
(assert (forall ((x_54227 list_225) (x_54228 Nat_541) (x_54229 Nat_541) (x_54216 list_225))
	(=>	(and true
			(diseqNat_541 x_54228 x_54229)
			(rev_7 x_54227 x_54216)
			(length_42 x_54228 x_54227)
			(length_42 x_54229 x_54216))
		false)))
(check-sat)
